Instance: E072-04f.dat
Class:  3
   71 --- number of customers (no depot)
   15 --- number of vehicles
  151 --- number of items
Capacity - height - width of vehicles
 30000     40     20
Node - x - y - demand
    0     0.0     0.0     0.0
    1   -12.0    -6.0  7063.0
    2   -15.0    -5.0    51.0
    3    -1.0   -18.0    23.0
    4     2.0   -21.0  3074.0
    5    -1.0   -17.0   349.0
    6    -9.0   -12.0  1047.0
    7     2.0   -22.0   698.0
    8     1.0   -21.0  3001.0
    9     7.0   -25.0    31.0
   10    -7.0   -17.0  1135.0
   11   -11.0    -5.0 21611.0
   12   -14.0    -9.0    57.0
   13   -14.0    -8.0    51.0
   14   -11.0    -2.0   551.0
   15   -14.0    -5.0   179.0
   16   -15.0    -9.0     6.0
   17   -15.0    -8.0   528.0
   18    -9.0    -6.0  2832.0
   19   -14.0    -4.0  1514.0
   20     3.0     6.0   889.0
   21     5.0     9.0  2554.0
   22     5.0    10.0  1215.0
   23     2.0     8.0  1810.0
   24     1.0     9.0  3050.0
   25     1.0    10.0     4.0
   26     2.0     9.0  1563.0
   27     6.0    14.0   741.0
   28     5.0    12.0  1532.0
   29     3.0     7.0   709.0
   30     4.0     8.0  1022.0
   31    -6.0     1.0   883.0
   32    -6.0     2.0  1689.0
   33    -8.0    -2.0 10235.0
   34    -7.0     2.0    29.0
   35    -7.0    -3.0  2894.0
   36    -7.0    -2.0   450.0
   37   -20.0    12.0   411.0
   38   -20.0    13.0   207.0
   39   -12.0    10.0   496.0
   40   -20.0    15.0  1021.0
   41    -6.0     8.0   117.0
   42     2.0    21.0    46.0
   43     2.0    22.0     8.0
   44     1.0    21.0    18.0
   45    -1.0    24.0   561.0
   46     1.0    22.0  1877.0
   47    -2.0    20.0  3542.0
   48    -2.0    21.0   801.0
   49    -4.0    18.0   967.0
   50    -4.0    19.0    62.0
   51    -5.0    18.0  1366.0
   52    -5.0    26.0   230.0
   53     1.0    23.0     4.0
   54    -6.0     5.0    12.0
   55    -6.0     6.0   145.0
   56    -9.0     6.0  7149.0
   57    -9.0     7.0  2250.0
   58   -12.0     5.0   383.0
   59   -12.0     6.0   134.0
   60   -11.0     3.0  1947.0
   61   -11.0     4.0   182.0
   62   -14.0     4.0  3934.0
   63   -14.0     5.0   468.0
   64   -15.0     4.0    18.0
   65   -15.0     5.0   133.0
   66   -16.0     7.0  2340.0
   67   -16.0     8.0   754.0
   68   -15.0    10.0  1264.0
   69   -20.0    10.0   806.0
   70    -5.0    19.0  3665.0
   71    -9.0   -11.0  2452.0
Node - number of items - h - w for each item
    0   0
    1   1    7   15
    2   3    4    8   12    7    9    7
    3   2   24    3   21    3
    4   3    4    9    5    7    9    6
    5   3   12    6   24    4   10    4
    6   1   20    3
    7   3   15    7    9    7   15    3
    8   3   14    6   19    4   28    2
    9   1    4    7
   10   1   13    7
   11   3    7   12   12    7   31    2
   12   2    5    7   17    3
   13   2    9    6   13    5
   14   3   27    4   13    4    8    4
   15   3    8    9    8    5   16    4
   16   3    6   11    6   11   12    6
   17   2    6   14    7    7
   18   3   27    3   24    3   17    3
   19   1    9    7
   20   1   16    4
   21   1   23    2
   22   3    7    8   13    6   20    2
   23   3   15    6   14    5   25    3
   24   3    5    9    8    7   14    6
   25   2    8    9   10    6
   26   3   14    6   26    2   13    2
   27   2    8   13   23    2
   28   3    5   16   12    5   25    4
   29   2    6   11   25    3
   30   2    7   14   15    5
   31   3    6   16    5   15   17    2
   32   3    4    8   30    4   26    3
   33   1   13    8
   34   3    5    9   14    8   29    4
   35   3   14    7    9    5   13    4
   36   3    4   13    5   11   31    3
   37   1   10    4
   38   2   13    6   13    3
   39   3    7   10   15    8   10    6
   40   3    6    7   14    5   31    3
   41   3    7   10    9    7   19    3
   42   1   10    6
   43   1    4   10
   44   2    5   14   16    2
   45   2    7   11    7   11
   46   1   14    7
   47   2    9    7   11    6
   48   3   25    3   31    2   30    2
   49   1   17    3
   50   1   16    4
   51   3   16    8    8    7   25    4
   52   3    9    8   12    6   10    5
   53   1    6   16
   54   3    5   14   15    7   22    2
   55   3    6   11   17    4   32    2
   56   1   19    4
   57   3    6   11   14    4   12    4
   58   3   16    5   31    2   24    2
   59   1   15    3
   60   1   26    3
   61   1    4    9
   62   1   14    3
   63   1    5   16
   64   2    6    9   24    4
   65   1    8    5
   66   3    8    8   20    3   17    3
   67   2    6    7    5    7
   68   3   11    7   10    7    9    7
   69   1    6    7
   70   3   10    7    5    7   13    3
   71   1    6   16
